Minimize
  86900 CN + 86800 CB + 86800 CG + 86700 CK + 86700 CC +
91700 GSN + 91600 GSB + 90100 GSG + 90200 GSK + 90300 GSC +
86800 CG22 + 86700 CK22 + 86700 CC22 +
90100 GSG22 + 90200 GSK22 + 90300 GSC22 +
86800 CG23 + 86700 CK23 + 86700 CC23 +
90100 GSG23 + 90200 GSK23 + 90300 GSC23
Subject To
  ChinaSupply: 1 CN + 1 CB + 1 CG + 1 CK + 1 CC <= 52
  GautengSupply: 1 GSN + 1 GSB + 1 GSG + 1 GSK + 1 GSC <= 20
  China2022Supply: 1 CG22 + 1 CK22 + 1 CC22 <= 52
  Gauteng2022Supply: 1 GSG22 + 1 GSK22 + 1 GSC22 <= 50
  China2023Supply: 1 CG23 + 1 CK23 + 1 CC23 <= 66
  Gauteng2023Supply: 1 GSG23 + 1 GSK23 + 1 GSC23 <= 66
  NewYorkDemand: 1 CN + 1 GSN >= 4
  GautengDemand: 1 CG + 1 GSG >= 22
  KwazuluDemand: 1 CK + 1 GSK >= 22
  CapeDemand: 1 CC + 1 GSC >= 22
  Gauteng2022Demand: 1 CG22 + 1 GSG22 >= 34
  Kwazulu2022Demand: 1 CK22 + 1 GSK22 >= 34
  Cape2022Demand: 1 CC22 + 1 GSC22 >= 34
  Gauteng2023Demand: 1 CG23 + 1 GSG23 >= 44
  Kwazulu2023Demand: 1 CK23 + 1 GSK23 >= 44
  Cape2023Demand: 1 CC23 + 1 GSC23 >= 44
Bounds:
  CN >= 0
  CB >= 0
  CG >= 0
  CK >= 0
  CC >= 0
  GSN >= 0
  GSB >= 0
  GSG >= 0
  GSK >= 0
  GSC >= 0
  CG22 >= 0
  CK22 >= 0
  CC22 >= 0
  GSG22 >= 0
  GSK22 >= 0
  GSC22 >= 0
  CG23 >= 0
  CK23 >= 0
  CC23 >= 0
  GSG23 >= 0
  GSK23 >= 0
  GSC23 >= 0
End
